continuum { # set size and grids

 NX=102
 NY=22  
 NZ=66


 XGRID=exponential; X0=0;  X1=1; XSTRETCH = 1.02  
 YGRID=exponential; Y0=-1; Y1=1; YSTRETCH = 0.99
 ZGRID=exp;         Z0=0;  Z1=2;  ZSTRETCH=1

 gridoutput=xyz.xyz
 output_format=chest
# output_format=plot3d
# output_mode=binary
 output_mode=ascii
#

 exec:output # initialized by default, so no need to call "init" (though allowed)

}

ches {
*************************** boundary conditions
 object=molecule
}



molecule {
 object=molecule 
 structure_format=PSF ; structure=tests/structure/exr_dry22c.psf ; paramtype=CHARMM
 coordinates=tests/structure/exr_1.pdb ; coortype=pdb
 
# radiitype=param; 
# parameters=tests/structure/par_all27_prot_na.prm ! param file
# parameters2=tests/structure/top_all27_prot_na.rtf ! topology file that has the atom types
} 


