# test case for computing grid densities based on a molecule
# grid size
output {
 minwarnlev=-1 ! turn off fatal warnings
}

continuum {
 nx=98
 ny=98
 nz=98

 xgrid=object ; xbuffer=12 ; dxmin=1 ;
 ygrid=object ; ybuffer=12 ; dymin=1 ;
 zgrid=object ; zbuffer=12 ; dzmin=1 ;

! xstretchfix=no ! defaults to yes
 xoptimize=no
 yoptimize=no
 zoptimize=no

 gridoutput=xyz.xyz
 outputmode=ascii

 exec: init
 exec: output
}

object {
 object=molecule
}

molecule{
 structure=traf-rank.psf
 parameters=par_all36_prot.prm
 coordinates=traf-rank.pdb
 coortype=pdb
}

ches{
 surfoutput=density.dat
 output_format=plot3d
 exec:init
 exec:output
}


