! charmm
! input file for Struna Plugin via ACEMD
!
output {
 minwarnlev=-1
}

molecule {
 structure_file=data/diala22_zts_0.pdb
}

smcv_init {
 defer_init_dyna=yes ! runs initialization stack at first step of dynamics, when coordinates are available
!=======================
 : init
!======================= CV definition :
 : add dihe_com -
  select aname=clp end -
  select aname=nl end -
  select aname=ca end -
  select aname=crp end
 : add dihe_com -
  select aname=nl end -
  select aname=ca end -
  select aname=crp end -
  select aname=nr end
!
!========================
 : list                      ! list variables
!========================
 : set force @{kf} all ! set force constant on all indices
!========================
! read string coords
 : read restart name @{stringfile} srep @{irep} col main ! read this replica CVs from the global restart file
 : copy main ref
!========================
! : test grad step 0.01
!========================
! statistics output
 : stat forc fcnm @{datadir}/force@{irep}.dat       ! average force file ; the forces are only computed if evolution is on
!=======================================
! dynamics options
 : dyna -
        rstr reeq 100  - ! impose restraints; switch to restraints in col main from those in col old over this many steps
        hisf 10      -   ! frequency of sampling instantaneous coordinates (history)
        stat staf 1000 - ! run statistics output after this many steps
        evol evof 1000 evst 0 ! dummy evolution to enable force computation (otherwise, could output frunave or inst. forces)
}

smcv_done {
! print CV coords (they should be unchanged, since we are not evolving)
 : write local name cv@{irep}.dat
}

