
init=(state)   ! custom initializer list (e.g., here, skipping coninuum)

 multicom {
  exec:set dmol 1    ;#default communicator
  exec:list
 }


molecule {
 structure = rab11a_now.psf

 paramtype = charmm
 paramlist = no
 parameters  = /home/taly/charmm/parameters/c36/par_all36_prot.prm
# parameters2 = /home/taly/charmm/parameters/c36/top_all36_prot.rtf
# parameters3 = /home/taly/charmm/parameters/c36/gtp.rtf
# parameters4 = /home/taly/charmm/parameters/c36/par_all36_na.prm
# parameters5 = /home/taly/charmm/parameters/c36/top_all36_na.rtf
# parameters6 = /home/taly/charmm/parameters/c36/stream/toppar_all36_na_nad_ppi.str
# parameters7 = /home/taly/charmm/parameters/c36/toppar_water_ions.str

}


dmol {

# initial temperature (if assigning; if not specified, will use temperature)
    init_temp=298.0

# verlet integrator section

  iterations = 100000
  temperature =  298 ! K
  langevin=on
  dt=1                  ! fs
  langevin_gamma=1      ! ps^-1
# output
  outputname=dynamo
  outputfreq=1
  printfreq=1000

  exec: init
  exec: run
}
