! charmm
! input file for Struna Plugin via ACEMD
!
output {
 minwarnlev=-1
}

molecule {
 structure_file=data/diala22_zts_0.pdb
}

smcv_init {
 defer_init_dyna=yes ! runs initialization stack at first step of dynamics, when coordinates are available
!=======================
 : init
!======================= CV definition :
 : add dihe_com -
  select aname=clp end -
  select aname=nl end -
  select aname=ca end -
  select aname=crp end
 : add dihe_com -
  select aname=nl end -
  select aname=ca end -
  select aname=crp end -
  select aname=nr end
!
!========================
 : list                      ! list variables
!========================
 : set force @{kf} all ! set force constant on all indices
!========================
! read string coords
! current :
 : read restart name @{stringfile} srep @{irep} col main ! read this replica CVs from the global restart file
! previous, for a smooth evolution
 : read restart name @{oldstringfile} srep @{irep} col comp
!========================
! : test grad step 0.01
!========================
! statistics output
 : stat -
		colv cnam @{datadir}/cv@{irun}_@{irep}.dat -        ! collective variable file
		forc fcnm @{datadir}/force@{irun}_@{irep}.dat       ! average force file
!=======================================
! dynamics options
 : dyna -
        rstr reeq @{reqfreq}  - ! impose restraints; switch to restraints in col main from those in col old over this many steps
        hisf @{hisf}      -   ! frequency of sampling instantaneous coordinates (history)
        stat staf @{staf} - ! run statistics output after this many steps
        @{evol} @{evospec}  ! string evolution  options
}

smcv_done {
! print CV coords for evolution (note local)
 : write local name cv@{irun}_@{irep}.dat
! print M tensor (information only)
! : mmat write name mmat@{irun}_@{irep}.dat short ! write short-term average for information
}
