! charmm
! input file for Struna Plugin via ACEMD
!
output {
 minwarnlev=-1
}

molecule {
 structure_file=data/diala22_zts_0.pdb
}

ftsm_init {
 defer_init_dyna=yes ! runs initialization stack at first step of dynamics, when coordinates are available
!=======================
 : init
!======================= atom selection :
 : set orient select @{orientation} end
 : set rmsd   select @{forcing} end
!========================
! : list                      ! list atoms
!========================
 : set mass on      ! turn on mass weighting in RMSD computation and orientation
 : set kpar 50      ! force constant for hyperplanes restraints
 : set dpar @{dpar} ! location of hyperplane (different for internal vs. endpoints)
 : set kprp 50      ! default is 0 (no perpendicular restraint)
 : set dprp 2.0     ! default is 1 (unscaled)
 : set proj on      ! forces restrain distance to hyperplane, but not position in the hyperplane (this is needed to compute 1D FE)
! read string coords
 : read txt name @{stringfile} from @{ileft}  col left
 : read txt name @{stringfile} from @{irep}   col center
 : read txt name @{stringfile} from @{iright} col right
! read old string coords (useful if they are evolving)
 : read txt name @{oldstringfile} from @{ileft}  col oleft
 : read txt name @{oldstringfile} from @{irep}   col ocenter
 : read txt name @{oldstringfile} from @{iright} col oright
! read evolving coordinates (if changing)
 : read txt name @{evolvingfile} from @{irep} col evol

! : test grad step 0.01

! statistics output
 : stat forc fcnm @{datadir}/force@{irun}_@{irep}.dat @{forceappend} @{fcurv} ! output forces; optionally, print curvature contribution to FE
!        dist dnam @{datadir}/proj@{irun}_@{irep}.dat @{distappend}    ! projection variables

 : dyna -
    rstr  -   ! restrained dynamics 
    @{evol} evofreq @{evofreq} evoskip @{evoskip} @{evotype} reeq @{reqfreq} - ! replica evolution options ; reeq : steps to adjust to new restraints
    stat staf @{freq}        ! statistics output
}

ftsm_done { ! only ftsm_done will be visible to string
! output evolving replicas (note that this is a single-replica file)
 : write txt name @{evolvingrep} col evol
}

