!charmm
continuum {
#Size
 nx=258; ny=258; nz=258

#Grid
 xgrid=exp ; x0=-29 ; x1=29
 ygrid=exp ; y0=-29 ; y1=29
 zgrid=exp ; z0=-29 ; z1=29

#Continuum output options
 output_format=chest
 output_mode=text
 gridoutput=xyz_test.xyz

! exec:output
}

object {
 object=molecule
 object_center=(0 0 0)
 object_align=yes
 exec:info
}

molecule {
 structype=PQR
 structure=1brs.pqr
 kappa_solute=0
 kappa_solvent=0
 eps_solute=2
 eps_solvent=80
 eps_scale=discover
 energy_units=kt
 temperature=297.33
 eps_padding=0 ! this is added to the radius to compute the eps array
 stdev_eps=1.
 eps_radius_scale=0.65
 stdev_charge=1.05
 bcname=delphi
! slightly more esoteric options
 cutoff_eps_stdev=6
 cutoff_charge_stdev=6
! preserve_total_charge=yes
! normalize_charge_support=yes ! make sure that each total charge particle contributes its nominal charge to the grid
}

ches {
#BC
 phi_bcx0=object
 phi_bcx1=object
 phi_bcy0=object
 phi_bcy1=object
 phi_bcz0=object
 phi_bcz1=object

#Initial 3D data

 epsinit=object
 kappainit=constant ; kappaconst=0.
 rhsinit=object
 phiinit=constant   ; phiconst=0.

#Solver
 solver=none

#Output
 output_format=chest
 output_mode=binary
 phioutput=solution.dat
# epsoutput=eps.dat
 rhsoutput=rhs.dat

#Execution
 exec:init
 exec:solve
 exec:energy
 exec:totch
 exec:coulomb
! exec:output
 exec:done
} ! ches

multigrid {
# multigrid solver parameters
# multigrid_maximum_cycles=4
# multigrid_smooth_iterations=5
# multigrid_maximum_levels=4
 multigrid_smoother=Gauss-Seidel
# multigrid_smoother=Jacobi
# multigrid_residual=2e-4 # for shorter running times
 multigrid_residual=1e-4
 multigrid_omega=1.44
}
