! charmm
! watershell input script
!
 output {
  minwarnlev=-1
 }


 molecule{
  structure_file=struc/traf-rank-wshell.pdb
 }

 watershell {

  structure_file=struc/traf-rank-wshell.pdb

  radii=file
  radiifile=struc/traf-rank-wshell.pdb
  radiifiletype=PDB
  radiicol=O

  mass=file
  massfile=struc/traf-rank-wshell-bmass.pdb
  massfiletype=PDB
  masscol=B

  structure_update_freq=7
  structure_update_memory=0.999

! barostat parameters :
  dasystat=yes ! optional, but if barostat=off then pressure control turned off
!  density_target=1 ! g/ml
  density_relax_time=100
  density_update_freq=100
! distance update parameters
  distance_update_freq=100    ! frequency of updating contour/distance value for pressure control
  distance_update_step=0.001 ! contour/distance value update step
!
  surface_force_constant=2 ! 1 and above seems to be reasonable
!  surface_distance=10 ! initial contour/distance
!  full_sum_freq=1
  remove_net_torque=yes
!  remove_net_force=no ! yes by default if remove_net_torque = on

  neighbor_list=yes

! use a simple minimum distance algorithm
  minimum_distance=yes

! more aggressive params to increase speed (only for regular method)
  cutoff_surf_stdev=4

  surface_atoms="ANAME=CA"
  solvent_atoms="ANAME=OH2 OR ANAME=SOD OR ANAME=CLA"

  output_file="watershell.restart1.txt"
  restart_file="watershell.restart0.txt"

  output_freq=1000

 }
