
init=(state)   ! custom initializer list (e.g., here, skipping coninuum)
exec=(system pca)  ! custom execution list

output {
 minwarnlev=0
 minmessagelev=2
}

multicom {
 exec: set dmol 1
}

# molecule
molecule {

 structure = rab11a_now.psf

 paramtype = charmm
 parameters  = /home/taly/charmm/parameters/c36/par_all36_prot.prm
 parameters2 = /home/taly/charmm/parameters/c36/top_all36_prot.rtf
 parameters3 = /home/taly/charmm/parameters/c36/gtp.rtf
 parameters4 = /home/taly/charmm/parameters/c36/par_all36_na.prm
 parameters5 = /home/taly/charmm/parameters/c36/top_all36_na.rtf
 parameters6 = /home/taly/charmm/parameters/c36/stream/toppar_all36_na_nad_ppi.str
 parameters7 = /home/taly/charmm/parameters/c36/toppar_water_ions.str

 coordinates=none

 exec:init
# exec:listparam

}

pca { ; # compute principal components and related quantities
 trajectory_file=rab11a_nvt_now5.dcd
 trajectory_format=dcd
 first_frame=1001
 last_frame=LAST
! last_frame=1010
 stride_frame=1

!bestfit=yes
 bestfit=iterative ; # iterate over the average structure and bestfitting
! mass=yes       ; # whether to use mass weights in orientation ; covariance matrix weighted by default a la Brooks et al 95

 quasi_temp=300 ; # temperature for quasiharmonic analysis
 entropy=yes ;

! atom_selection = "aname ~=CA"
 atom_selection = "aname =CA"

 covmat_output=rab11a_cov.dat
 covmat_output=rab11a_cov.txt
 covmat_type = text
 average_output = rab11a_pca.pdb
 average_type = pdb
 evec_list = ( 1 thru 10 ) ;# use parselist
 evec_output= 
 evec_type = binary ;
 eval_output =      # text file with eigenvalues

 exec:init
 exec:run
}

