
molecule {

 paramtype = xplor
 parameters = test/par_all22_prot_cmap.inp
# parameters2 = test/top_all22_prot_cmap.inp
 structure = test/rig22vcx.psf
 coordinates=test/rig_4.cor
 coortype=charmm
# coortype=atomid

}


dmol {

# initial temperature (if assigning; if not specified, will use temperature)
    init_temp=298.0

# verlet integrator section

  iterations = 100000
  temperature =  298 ! K
  langevin=on
  dt=1                  ! fs
  langevin_gamma=1      ! ps^-1
# output
  outputname=dynamo
  outputfreq=1
  printfreq=1000

  exec: init
  exec: run
}